<number of tasks>
50

<cycle time>
1000

<order strength>
0.6


<task times>
1 797
2 411
3 479
4 444
5 465
6 652
7 375
8 412
9 404
10 512
11 488
12 588
13 678
14 477
15 508
16 302
17 328
18 315
19 159
20 579
21 657
22 234
23 295
24 635
25 524
26 283
27 759
28 698
29 123
30 473
31 455
32 662
33 517
34 550
35 318
36 715
37 532
38 686
39 481
40 763
41 572
42 593
43 450
44 501
45 548
46 652
47 559
48 445
49 288
50 620

<precedence relations>
1,5
1,6
2,8
2,9
2,10
3,6
4,7
4,8
5,11
5,12
5,17
6,16
6,17
7,11
7,12
9,11
9,13
10,18
10,29
10,34
11,14
11,15
12,24
13,15
13,16
13,17
14,18
14,20
14,22
15,18
15,19
15,41
16,18
16,19
16,20
16,21
16,22
17,32
17,34
17,35
18,23
19,25
20,41
21,24
22,27
22,38
22,40
23,26
23,28
23,35
24,27
24,29
25,34
26,36
27,30
27,34
28,32
29,31
29,32
29,33
29,35
30,39
30,41
31,37
31,38
32,37
32,39
32,45
33,40
34,37
35,36
35,38
36,42
36,43
36,46
37,48
37,50
38,49
39,43
39,44
40,42
41,45
41,46
42,47
42,50
43,49
44,48
46,50

<end>
